120
150
47
23
80
23
51
50
26
49
27
91
31
82
24
76
23
59
32
59
35
25
59
44
47
44
89
28
97
53
50
100
43
33
31
25
26
24
75
29
91
42
64
44
46
31
38
35
29
38
76
36
59
80
75
75
86
68
51
29
35
75
28
47
59
28
88
82
68
62
100
99
73
34
24
80
26
51
50
90
36
44
59
91
43
38
35
68
47
91
59
47
72
68
49
75
31
44
50
47
53
90
59
36
36
47
77
33
38
75
75
33
31
31
68
80
31
52
97
24
68
82
